(set-logic HORN)
(declare-fun k_123
             (Int
              Int
              Int
              Int
              Int
              Int
              Int
              Int
              (Array Int Int)
              (Array Int Bool)
              (Array Int (Array Int Int)))
             Bool)
(declare-fun k_73
             (Int
              Int
              Int
              Int
              Int
              Int
              (Array Int Int)
              (Array Int Bool)
              (Array Int (Array Int Int)))
             Bool)
(declare-fun k_82
             (Int
              Int
              Int
              Int
              Int
              Int
              Int
              (Array Int Int)
              (Array Int Bool)
              (Array Int (Array Int Int)))
             Bool)
(declare-fun k_128
             (Int
              Int
              Int
              Int
              Int
              Int
              Int
              (Array Int Int)
              (Array Int Bool)
              (Array Int (Array Int Int)))
             Bool)
(declare-fun k_91
             (Int
              Int
              Int
              Int
              Int
              Int
              (Array Int Int)
              (Array Int Bool)
              (Array Int (Array Int Int)))
             Bool)
(declare-fun k_93
             (Int
              Int
              Int
              Int
              Int
              Int
              (Array Int Int)
              (Array Int Bool)
              (Array Int (Array Int Int)))
             Bool)
(declare-fun k_70
             (Int
              Int
              Int
              Int
              Int
              (Array Int Int)
              (Array Int Bool)
              (Array Int (Array Int Int)))
             Bool)
(declare-fun k_89
             (Int
              Int
              Int
              Int
              Int
              Int
              (Array Int Int)
              (Array Int Bool)
              (Array Int (Array Int Int)))
             Bool)
(declare-fun k_49
             (Int
              Int
              Int
              Int
              Int
              (Array Int Int)
              (Array Int Bool)
              (Array Int (Array Int Int)))
             Bool)
(declare-fun k_107
             (Int
              Int
              Int
              Int
              Int
              Int
              Int
              Int
              (Array Int Int)
              (Array Int Bool)
              (Array Int (Array Int Int)))
             Bool)
(declare-fun k_65
             (Int
              Int
              Int
              Int
              Int
              Int
              Int
              Int
              (Array Int Int)
              (Array Int Bool)
              (Array Int (Array Int Int)))
             Bool)
(declare-fun k_79
             (Int
              Int
              Int
              Int
              Int
              (Array Int Int)
              (Array Int Bool)
              (Array Int (Array Int Int)))
             Bool)
(declare-fun k_56
             (Int
              Int
              Int
              Int
              (Array Int Int)
              (Array Int Bool)
              (Array Int (Array Int Int)))
             Bool)
(declare-fun k_117
             (Int
              Int
              Int
              Int
              Int
              Int
              (Array Int Int)
              (Array Int Bool)
              (Array Int (Array Int Int)))
             Bool)
(declare-fun k_125
             (Int
              Int
              Int
              Int
              Int
              Int
              Int
              Int
              (Array Int Int)
              (Array Int Bool)
              (Array Int (Array Int Int)))
             Bool)
(declare-fun k_95
             (Int
              Int
              Int
              Int
              Int
              Int
              Int
              (Array Int Int)
              (Array Int Bool)
              (Array Int (Array Int Int)))
             Bool)
(declare-fun k_51
             (Int
              Int
              Int
              Int
              Int
              (Array Int Int)
              (Array Int Bool)
              (Array Int (Array Int Int)))
             Bool)
(declare-fun k_53
             (Int
              Int
              Int
              Int
              Int
              (Array Int Int)
              (Array Int Bool)
              (Array Int (Array Int Int)))
             Bool)
(declare-fun k_105
             (Int
              Int
              Int
              Int
              Int
              Int
              Int
              Int
              (Array Int Int)
              (Array Int Bool)
              (Array Int (Array Int Int)))
             Bool)
(declare-fun k_59
             (Int
              Int
              Int
              Int
              Int
              (Array Int Int)
              (Array Int Bool)
              (Array Int (Array Int Int)))
             Bool)
(declare-fun k_130
             (Int
              Int
              Int
              Int
              Int
              Int
              Int
              (Array Int Int)
              (Array Int Bool)
              (Array Int (Array Int Int)))
             Bool)
(declare-fun k_110
             (Int
              Int
              Int
              Int
              Int
              Int
              Int
              (Array Int Int)
              (Array Int Bool)
              (Array Int (Array Int Int)))
             Bool)
(declare-fun k_84
             (Int
              Int
              Int
              Int
              Int
              Int
              Int
              (Array Int Int)
              (Array Int Bool)
              (Array Int (Array Int Int)))
             Bool)
(declare-fun k_121
             (Int
              Int
              Int
              Int
              Int
              Int
              Int
              Int
              (Array Int Int)
              (Array Int Bool)
              (Array Int (Array Int Int)))
             Bool)
(declare-fun k_101
             (Int
              Int
              Int
              Int
              Int
              Int
              Int
              (Array Int Int)
              (Array Int Bool)
              (Array Int (Array Int Int)))
             Bool)
(declare-fun k_103
             (Int
              Int
              Int
              Int
              Int
              Int
              Int
              Int
              (Array Int Int)
              (Array Int Bool)
              (Array Int (Array Int Int)))
             Bool)
(declare-fun k_113
             (Int
              Int
              Int
              Int
              (Array Int Int)
              (Array Int Bool)
              (Array Int (Array Int Int)))
             Bool)
(declare-fun k_86
             (Int
              Int
              Int
              Int
              Int
              Int
              Int
              (Array Int Int)
              (Array Int Bool)
              (Array Int (Array Int Int)))
             Bool)
(assert (forall ((EQ_6U Int)
         (GT_6W Int)
         (LT_6S Int)
         (a_azc Int)
         (x_ayJ Int)
         (lq_anf__dzP Int)
         (VV_F16 Int)
         (b_azp Int)
         (cmp (Array Int Int))
         (Prop (Array Int Bool))
         (P_rkk (Array Int (Array Int Int))))
  (=> (and (k_73 EQ_6U GT_6W LT_6S lq_anf__dzP a_azc x_ayJ cmp Prop P_rkk)
           (k_79 EQ_6U GT_6W LT_6S x_ayJ b_azp cmp Prop P_rkk)
           (= (select cmp EQ_6U) EQ_6U)
           (= (select cmp GT_6W) GT_6W)
           (= (select cmp LT_6S) LT_6S)
           (k_73 EQ_6U GT_6W LT_6S VV_F16 a_azc x_ayJ cmp Prop P_rkk)
           (= VV_F16 lq_anf__dzP)
           true)
      (k_101 EQ_6U GT_6W LT_6S VV_F16 b_azp lq_anf__dzP x_ayJ cmp Prop P_rkk))))
(assert (forall ((b_azp Int)
         (EQ_6U Int)
         (GT_6W Int)
         (LT_6S Int)
         (lq_anf__dzQ Int)
         (lq_anf__dzS Int)
         (n_ayK Int)
         (VV_F1 Int)
         (cmp (Array Int Int))
         (Prop (Array Int Bool))
         (P_rkk (Array Int (Array Int Int))))
  (=> (and (k_89 EQ_6U GT_6W LT_6S lq_anf__dzS b_azp n_ayK cmp Prop P_rkk)
           (= (select cmp EQ_6U) EQ_6U)
           (= (select cmp GT_6W) GT_6W)
           (= (select cmp LT_6S) LT_6S)
           (= lq_anf__dzQ 100)
           (k_130 EQ_6U
                  GT_6W
                  LT_6S
                  VV_F1
                  lq_anf__dzQ
                  lq_anf__dzS
                  n_ayK
                  cmp
                  Prop
                  P_rkk)
           true)
      (k_113 EQ_6U GT_6W LT_6S VV_F1 cmp Prop P_rkk))))
(assert (forall ((EQ_6U Int)
         (GT_6W Int)
         (LT_6S Int)
         (a_azc Int)
         (x_ayJ Int)
         (lq_anf__dzP Int)
         (b_azp Int)
         (VV_F17 Int)
         (cmp (Array Int Int))
         (Prop (Array Int Bool))
         (P_rkk (Array Int (Array Int Int))))
  (=> (and (k_73 EQ_6U GT_6W LT_6S lq_anf__dzP a_azc x_ayJ cmp Prop P_rkk)
           (k_79 EQ_6U GT_6W LT_6S x_ayJ b_azp cmp Prop P_rkk)
           (= (select cmp EQ_6U) EQ_6U)
           (= (select cmp GT_6W) GT_6W)
           (= (select cmp LT_6S) LT_6S)
           (k_101 EQ_6U
                  GT_6W
                  LT_6S
                  VV_F17
                  b_azp
                  lq_anf__dzP
                  x_ayJ
                  cmp
                  Prop
                  P_rkk)
           true)
      (k_95 EQ_6U GT_6W LT_6S VV_F17 b_azp x_ayJ x_ayJ cmp Prop P_rkk))))
(assert (forall ((EQ_6U Int)
         (GT_6W Int)
         (LT_6S Int)
         (a_azc Int)
         (x_ayJ Int)
         (lq_anf__dzP Int)
         (b_azp Int)
         (VV_F17 Int)
         (cmp (Array Int Int))
         (Prop (Array Int Bool))
         (P_rkk (Array Int (Array Int Int))))
  (=> (and (k_73 EQ_6U GT_6W LT_6S lq_anf__dzP a_azc x_ayJ cmp Prop P_rkk)
           (k_79 EQ_6U GT_6W LT_6S x_ayJ b_azp cmp Prop P_rkk)
           (= (select cmp EQ_6U) EQ_6U)
           (= (select cmp GT_6W) GT_6W)
           (= (select cmp LT_6S) LT_6S)
           (k_101 EQ_6U
                  GT_6W
                  LT_6S
                  VV_F17
                  b_azp
                  lq_anf__dzP
                  x_ayJ
                  cmp
                  Prop
                  P_rkk)
           true)
      (k_93 EQ_6U GT_6W LT_6S VV_F17 b_azp x_ayJ cmp Prop P_rkk))))
(assert (forall ((b_azp Int)
         (EQ_6U Int)
         (GT_6W Int)
         (LT_6S Int)
         (lq_anf__dzQ Int)
         (lq_anf__dzS Int)
         (n_ayK Int)
         (VV_F2 Int)
         (cmp (Array Int Int))
         (Prop (Array Int Bool))
         (P_rkk (Array Int (Array Int Int))))
  (=> (and (k_89 EQ_6U GT_6W LT_6S lq_anf__dzS b_azp n_ayK cmp Prop P_rkk)
           (= (select cmp EQ_6U) EQ_6U)
           (= (select cmp GT_6W) GT_6W)
           (= (select cmp LT_6S) LT_6S)
           (= lq_anf__dzQ 100)
           (k_89 EQ_6U GT_6W LT_6S VV_F2 b_azp n_ayK cmp Prop P_rkk)
           (= VV_F2 lq_anf__dzS)
           true)
      (k_128 EQ_6U
             GT_6W
             LT_6S
             VV_F2
             lq_anf__dzQ
             lq_anf__dzS
             n_ayK
             cmp
             Prop
             P_rkk))))
(assert (forall ((EQ_6U Int)
         (GT_6W Int)
         (LT_6S Int)
         (a_azc Int)
         (x_ayJ Int)
         (lq_anf__dzP Int)
         (b_azp Int)
         (VV_F18 Int)
         (x Int)
         (cmp (Array Int Int))
         (Prop (Array Int Bool))
         (P_rkk (Array Int (Array Int Int))))
  (=> (and (k_73 EQ_6U GT_6W LT_6S lq_anf__dzP a_azc x_ayJ cmp Prop P_rkk)
           (k_101 EQ_6U GT_6W LT_6S x b_azp lq_anf__dzP x_ayJ cmp Prop P_rkk)
           (k_79 EQ_6U GT_6W LT_6S x_ayJ b_azp cmp Prop P_rkk)
           (= (select cmp EQ_6U) EQ_6U)
           (= (select cmp GT_6W) GT_6W)
           (= (select cmp LT_6S) LT_6S)
           true)
      (k_110 EQ_6U GT_6W LT_6S VV_F18 b_azp lq_anf__dzP x_ayJ cmp Prop P_rkk))))
(assert (forall ((VV_F3 Int)
         (EQ_6U Int)
         (GT_6W Int)
         (LT_6S Int)
         (lq_anf__dzS Int)
         (lq_anf__dzQ Int)
         (b_azp Int)
         (n_ayK Int)
         (VV_134 Int)
         (cmp (Array Int Int))
         (Prop (Array Int Bool))
         (P_rkk (Array Int (Array Int Int))))
  (=> (and (k_89 EQ_6U GT_6W LT_6S VV_134 b_azp n_ayK cmp Prop P_rkk)
           (k_89 EQ_6U GT_6W LT_6S lq_anf__dzS b_azp n_ayK cmp Prop P_rkk)
           (= (select cmp EQ_6U) EQ_6U)
           (= (select cmp GT_6W) GT_6W)
           (= (select cmp LT_6S) LT_6S)
           (= VV_134 lq_anf__dzS)
           (= lq_anf__dzQ 100)
           (k_82 EQ_6U GT_6W LT_6S VV_F3 VV_134 b_azp n_ayK cmp Prop P_rkk)
           true)
      (k_121 EQ_6U
             GT_6W
             LT_6S
             VV_F3
             VV_134
             lq_anf__dzQ
             lq_anf__dzS
             n_ayK
             cmp
             Prop
             P_rkk))))
(assert (forall ((EQ_6U Int)
         (GT_6W Int)
         (LT_6S Int)
         (a_azc Int)
         (x_ayJ Int)
         (lq_anf__dzP Int)
         (VV_F19 Int)
         (b_azp Int)
         (VV_165 Int)
         (x Int)
         (cmp (Array Int Int))
         (Prop (Array Int Bool))
         (P_rkk (Array Int (Array Int Int))))
  (=> (and (k_73 EQ_6U GT_6W LT_6S lq_anf__dzP a_azc x_ayJ cmp Prop P_rkk)
           (k_101 EQ_6U GT_6W LT_6S x b_azp lq_anf__dzP x_ayJ cmp Prop P_rkk)
           (k_79 EQ_6U GT_6W LT_6S x_ayJ b_azp cmp Prop P_rkk)
           (= (select cmp EQ_6U) EQ_6U)
           (= (select cmp GT_6W) GT_6W)
           (= (select cmp LT_6S) LT_6S)
           (k_91 EQ_6U GT_6W LT_6S VV_F19 b_azp x_ayJ cmp Prop P_rkk)
           true)
      (k_103 EQ_6U
             GT_6W
             LT_6S
             VV_F19
             VV_165
             b_azp
             lq_anf__dzP
             x_ayJ
             cmp
             Prop
             P_rkk))))
(assert (forall ((EQ_6U Int)
         (VV_F4 Int)
         (GT_6W Int)
         (LT_6S Int)
         (lq_anf__dzS Int)
         (lq_anf__dzQ Int)
         (b_azp Int)
         (n_ayK Int)
         (VV_134 Int)
         (cmp (Array Int Int))
         (Prop (Array Int Bool))
         (P_rkk (Array Int (Array Int Int))))
  (=> (and (k_89 EQ_6U GT_6W LT_6S VV_134 b_azp n_ayK cmp Prop P_rkk)
           (k_89 EQ_6U GT_6W LT_6S lq_anf__dzS b_azp n_ayK cmp Prop P_rkk)
           (= (select cmp EQ_6U) EQ_6U)
           (= (select cmp GT_6W) GT_6W)
           (= (select cmp LT_6S) LT_6S)
           (= VV_134 lq_anf__dzS)
           (= lq_anf__dzQ 100)
           (k_84 EQ_6U GT_6W LT_6S VV_F4 VV_134 b_azp n_ayK cmp Prop P_rkk)
           true)
      (k_123 EQ_6U
             GT_6W
             LT_6S
             VV_F4
             VV_134
             lq_anf__dzQ
             lq_anf__dzS
             n_ayK
             cmp
             Prop
             P_rkk))))
(assert (forall ((EQ_6U Int)
         (GT_6W Int)
         (LT_6S Int)
         (VV_F20 Int)
         (a_azc Int)
         (x_ayJ Int)
         (lq_anf__dzP Int)
         (b_azp Int)
         (VV_165 Int)
         (x Int)
         (cmp (Array Int Int))
         (Prop (Array Int Bool))
         (P_rkk (Array Int (Array Int Int))))
  (=> (and (k_73 EQ_6U GT_6W LT_6S lq_anf__dzP a_azc x_ayJ cmp Prop P_rkk)
           (k_101 EQ_6U GT_6W LT_6S x b_azp lq_anf__dzP x_ayJ cmp Prop P_rkk)
           (k_79 EQ_6U GT_6W LT_6S x_ayJ b_azp cmp Prop P_rkk)
           (= (select cmp EQ_6U) EQ_6U)
           (= (select cmp GT_6W) GT_6W)
           (= (select cmp LT_6S) LT_6S)
           (k_93 EQ_6U GT_6W LT_6S VV_F20 b_azp x_ayJ cmp Prop P_rkk)
           true)
      (k_105 EQ_6U
             GT_6W
             LT_6S
             VV_F20
             VV_165
             b_azp
             lq_anf__dzP
             x_ayJ
             cmp
             Prop
             P_rkk))))
(assert (forall ((b_azp Int)
         (EQ_6U Int)
         (GT_6W Int)
         (LT_6S Int)
         (lq_anf__dzQ Int)
         (lq_tmp_x126 Int)
         (lq_anf__dzS Int)
         (n_ayK Int)
         (VV_F5 Int)
         (cmp (Array Int Int))
         (Prop (Array Int Bool))
         (P_rkk (Array Int (Array Int Int))))
  (=> (and (k_89 EQ_6U GT_6W LT_6S lq_anf__dzS b_azp n_ayK cmp Prop P_rkk)
           (= (select cmp EQ_6U) EQ_6U)
           (= (select cmp GT_6W) GT_6W)
           (= (select cmp LT_6S) LT_6S)
           (= lq_anf__dzQ 100)
           (k_86 EQ_6U GT_6W LT_6S VV_F5 b_azp lq_tmp_x126 n_ayK cmp Prop P_rkk)
           true)
      (k_125 EQ_6U
             GT_6W
             LT_6S
             VV_F5
             lq_anf__dzQ
             lq_anf__dzS
             lq_tmp_x126
             n_ayK
             cmp
             Prop
             P_rkk))))
(assert (forall ((VV_F21 Int)
         (EQ_6U Int)
         (GT_6W Int)
         (LT_6S Int)
         (a_azc Int)
         (x_ayJ Int)
         (lq_anf__dzP Int)
         (b_azp Int)
         (lq_tmp_x108 Int)
         (x Int)
         (cmp (Array Int Int))
         (Prop (Array Int Bool))
         (P_rkk (Array Int (Array Int Int))))
  (=> (and (k_73 EQ_6U GT_6W LT_6S lq_anf__dzP a_azc x_ayJ cmp Prop P_rkk)
           (k_101 EQ_6U GT_6W LT_6S x b_azp lq_anf__dzP x_ayJ cmp Prop P_rkk)
           (k_79 EQ_6U GT_6W LT_6S x_ayJ b_azp cmp Prop P_rkk)
           (= (select cmp EQ_6U) EQ_6U)
           (= (select cmp GT_6W) GT_6W)
           (= (select cmp LT_6S) LT_6S)
           (k_95 EQ_6U
                 GT_6W
                 LT_6S
                 VV_F21
                 b_azp
                 lq_tmp_x108
                 x_ayJ
                 cmp
                 Prop
                 P_rkk)
           true)
      (k_107 EQ_6U
             GT_6W
             LT_6S
             VV_F21
             b_azp
             lq_anf__dzP
             lq_tmp_x108
             x_ayJ
             cmp
             Prop
             P_rkk))))
(assert (forall ((b_azp Int)
         (EQ_6U Int)
         (GT_6W Int)
         (LT_6S Int)
         (lq_anf__dzQ Int)
         (VV_F6 Int)
         (lq_anf__dzS Int)
         (n_ayK Int)
         (cmp (Array Int Int))
         (Prop (Array Int Bool))
         (P_rkk (Array Int (Array Int Int))))
  (=> (and (k_89 EQ_6U GT_6W LT_6S lq_anf__dzS b_azp n_ayK cmp Prop P_rkk)
           (= (select cmp EQ_6U) EQ_6U)
           (= (select cmp GT_6W) GT_6W)
           (= (select cmp LT_6S) LT_6S)
           (= lq_anf__dzQ 100)
           (k_128 EQ_6U
                  GT_6W
                  LT_6S
                  VV_F6
                  lq_anf__dzQ
                  lq_anf__dzS
                  n_ayK
                  cmp
                  Prop
                  P_rkk)
           true)
      (k_56 EQ_6U GT_6W LT_6S VV_F6 cmp Prop P_rkk))))
(assert (forall ((EQ_6U Int)
         (GT_6W Int)
         (LT_6S Int)
         (VV_F22 Int)
         (a_azc Int)
         (x_ayJ Int)
         (b_azp Int)
         (cmp (Array Int Int))
         (Prop (Array Int Bool))
         (P_rkk (Array Int (Array Int Int))))
  (=> (and (k_79 EQ_6U GT_6W LT_6S x_ayJ b_azp cmp Prop P_rkk)
           (= (select cmp EQ_6U) EQ_6U)
           (= (select cmp GT_6W) GT_6W)
           (= (select cmp LT_6S) LT_6S)
           (k_79 EQ_6U GT_6W LT_6S VV_F22 b_azp cmp Prop P_rkk)
           (= VV_F22 x_ayJ)
           true)
      (k_70 EQ_6U GT_6W LT_6S VV_F22 a_azc cmp Prop P_rkk))))
(assert (forall ((b_azp Int)
         (EQ_6U Int)
         (GT_6W Int)
         (LT_6S Int)
         (lq_anf__dzS Int)
         (VV_143 Int)
         (lq_anf__dzQ Int)
         (n_ayK Int)
         (VV_F7 Int)
         (cmp (Array Int Int))
         (Prop (Array Int Bool))
         (P_rkk (Array Int (Array Int Int))))
  (=> (and (k_128 EQ_6U
                  GT_6W
                  LT_6S
                  VV_143
                  lq_anf__dzQ
                  lq_anf__dzS
                  n_ayK
                  cmp
                  Prop
                  P_rkk)
           (k_89 EQ_6U GT_6W LT_6S lq_anf__dzS b_azp n_ayK cmp Prop P_rkk)
           (= (select cmp EQ_6U) EQ_6U)
           (= (select cmp GT_6W) GT_6W)
           (= (select cmp LT_6S) LT_6S)
           (= lq_anf__dzQ 100)
           (k_121 EQ_6U
                  GT_6W
                  LT_6S
                  VV_F7
                  VV_143
                  lq_anf__dzQ
                  lq_anf__dzS
                  n_ayK
                  cmp
                  Prop
                  P_rkk)
           true)
      (k_49 EQ_6U GT_6W LT_6S VV_F7 VV_143 cmp Prop P_rkk))))
(assert (forall ((b_azp Int)
         (EQ_6U Int)
         (GT_6W Int)
         (LT_6S Int)
         (lq_anf__dzS Int)
         (VV_143 Int)
         (lq_anf__dzQ Int)
         (n_ayK Int)
         (VV_F7 Int)
         (cmp (Array Int Int))
         (Prop (Array Int Bool))
         (P_rkk (Array Int (Array Int Int))))
  (=> (and (k_128 EQ_6U
                  GT_6W
                  LT_6S
                  VV_143
                  lq_anf__dzQ
                  lq_anf__dzS
                  n_ayK
                  cmp
                  Prop
                  P_rkk)
           (k_89 EQ_6U GT_6W LT_6S lq_anf__dzS b_azp n_ayK cmp Prop P_rkk)
           (= (select cmp EQ_6U) EQ_6U)
           (= (select cmp GT_6W) GT_6W)
           (= (select cmp LT_6S) LT_6S)
           (= lq_anf__dzQ 100)
           (k_121 EQ_6U
                  GT_6W
                  LT_6S
                  VV_F7
                  VV_143
                  lq_anf__dzQ
                  lq_anf__dzS
                  n_ayK
                  cmp
                  Prop
                  P_rkk)
           true)
      (k_117 EQ_6U GT_6W LT_6S VV_F7 lq_anf__dzQ n_ayK cmp Prop P_rkk))))
(assert (forall ((EQ_6U Int)
         (GT_6W Int)
         (LT_6S Int)
         (x_ayJ Int)
         (VV_F23 Int)
         (b_azp Int)
         (cmp (Array Int Int))
         (Prop (Array Int Bool))
         (P_rkk (Array Int (Array Int Int))))
  (=> (and (k_79 EQ_6U GT_6W LT_6S x_ayJ b_azp cmp Prop P_rkk)
           (= (select cmp EQ_6U) EQ_6U)
           (= (select cmp GT_6W) GT_6W)
           (= (select cmp LT_6S) LT_6S)
           (k_79 EQ_6U GT_6W LT_6S VV_F23 b_azp cmp Prop P_rkk)
           (= VV_F23 x_ayJ)
           true)
      (k_91 EQ_6U GT_6W LT_6S VV_F23 b_azp x_ayJ cmp Prop P_rkk))))
(assert (forall ((VV_F8 Int)
         (b_azp Int)
         (EQ_6U Int)
         (GT_6W Int)
         (LT_6S Int)
         (lq_anf__dzS Int)
         (VV_143 Int)
         (lq_anf__dzQ Int)
         (n_ayK Int)
         (cmp (Array Int Int))
         (Prop (Array Int Bool))
         (P_rkk (Array Int (Array Int Int))))
  (=> (and (k_128 EQ_6U
                  GT_6W
                  LT_6S
                  VV_143
                  lq_anf__dzQ
                  lq_anf__dzS
                  n_ayK
                  cmp
                  Prop
                  P_rkk)
           (k_89 EQ_6U GT_6W LT_6S lq_anf__dzS b_azp n_ayK cmp Prop P_rkk)
           (= (select cmp EQ_6U) EQ_6U)
           (= (select cmp GT_6W) GT_6W)
           (= (select cmp LT_6S) LT_6S)
           (= lq_anf__dzQ 100)
           (k_123 EQ_6U
                  GT_6W
                  LT_6S
                  VV_F8
                  VV_143
                  lq_anf__dzQ
                  lq_anf__dzS
                  n_ayK
                  cmp
                  Prop
                  P_rkk)
           true)
      (k_51 EQ_6U GT_6W LT_6S VV_F8 VV_143 cmp Prop P_rkk))))
(assert (forall ((VV_F8 Int)
         (b_azp Int)
         (EQ_6U Int)
         (GT_6W Int)
         (LT_6S Int)
         (lq_anf__dzS Int)
         (VV_143 Int)
         (lq_anf__dzQ Int)
         (n_ayK Int)
         (cmp (Array Int Int))
         (Prop (Array Int Bool))
         (P_rkk (Array Int (Array Int Int))))
  (=> (and (k_128 EQ_6U
                  GT_6W
                  LT_6S
                  VV_143
                  lq_anf__dzQ
                  lq_anf__dzS
                  n_ayK
                  cmp
                  Prop
                  P_rkk)
           (k_89 EQ_6U GT_6W LT_6S lq_anf__dzS b_azp n_ayK cmp Prop P_rkk)
           (= (select cmp EQ_6U) EQ_6U)
           (= (select cmp GT_6W) GT_6W)
           (= (select cmp LT_6S) LT_6S)
           (= lq_anf__dzQ 100)
           (k_123 EQ_6U
                  GT_6W
                  LT_6S
                  VV_F8
                  VV_143
                  lq_anf__dzQ
                  lq_anf__dzS
                  n_ayK
                  cmp
                  Prop
                  P_rkk)
           true)
      (k_117 EQ_6U GT_6W LT_6S VV_F8 lq_anf__dzQ n_ayK cmp Prop P_rkk))))
(assert (forall ((x_ayI Int)
         (VV_F24 Int)
         (EQ_6U Int)
         (GT_6W Int)
         (LT_6S Int)
         (a_azc Int)
         (lq_anf__dzN Int)
         (lq_anf__dzM Int)
         (cmp (Array Int Int))
         (Prop (Array Int Bool))
         (P_rkk (Array Int (Array Int Int))))
  (=> (and (k_70 EQ_6U GT_6W LT_6S x_ayI a_azc cmp Prop P_rkk)
           (= (select cmp EQ_6U) EQ_6U)
           (= (select cmp GT_6W) GT_6W)
           (= (select cmp LT_6S) LT_6S)
           (= lq_anf__dzM 1)
           (= lq_anf__dzN lq_anf__dzM)
           (= VV_F24 (+ x_ayI lq_anf__dzN))
           true)
      (k_73 EQ_6U GT_6W LT_6S VV_F24 a_azc x_ayI cmp Prop P_rkk))))
(assert (forall ((lq_tmp_x54 Int)
         (b_azp Int)
         (VV_F9 Int)
         (EQ_6U Int)
         (GT_6W Int)
         (LT_6S Int)
         (lq_anf__dzQ Int)
         (lq_anf__dzS Int)
         (n_ayK Int)
         (cmp (Array Int Int))
         (Prop (Array Int Bool))
         (P_rkk (Array Int (Array Int Int))))
  (=> (and (k_89 EQ_6U GT_6W LT_6S lq_anf__dzS b_azp n_ayK cmp Prop P_rkk)
           (= (select cmp EQ_6U) EQ_6U)
           (= (select cmp GT_6W) GT_6W)
           (= (select cmp LT_6S) LT_6S)
           (= lq_anf__dzQ 100)
           (k_125 EQ_6U
                  GT_6W
                  LT_6S
                  VV_F9
                  lq_anf__dzQ
                  lq_anf__dzS
                  lq_tmp_x54
                  n_ayK
                  cmp
                  Prop
                  P_rkk)
           true)
      (k_53 EQ_6U GT_6W LT_6S VV_F9 lq_tmp_x54 cmp Prop P_rkk))))
(assert (forall ((lq_anf__dzK Int)
         (EQ_6U Int)
         (GT_6W Int)
         (LT_6S Int)
         (lq_anf__dzL Int)
         (x_ayL Int)
         (VV_F25 Int)
         (ds_dzI Int)
         (y_ayM Int)
         (cmp (Array Int Int))
         (Prop (Array Int Bool))
         (P_rkk (Array Int (Array Int Int))))
  (let ((a!1 (and (k_56 EQ_6U GT_6W LT_6S ds_dzI cmp Prop P_rkk)
                  (k_56 EQ_6U GT_6W LT_6S lq_anf__dzK cmp Prop P_rkk)
                  (k_49 EQ_6U GT_6W LT_6S x_ayL lq_anf__dzK cmp Prop P_rkk)
                  (k_51 EQ_6U GT_6W LT_6S y_ayM lq_anf__dzK cmp Prop P_rkk)
                  (k_53 EQ_6U GT_6W LT_6S y_ayM x_ayL cmp Prop P_rkk)
                  (= (select cmp EQ_6U) EQ_6U)
                  (= (select cmp GT_6W) GT_6W)
                  (= (select cmp LT_6S) LT_6S)
                  (= lq_anf__dzK ds_dzI)
                  (= lq_anf__dzK (select (select P_rkk x_ayL) y_ayM))
                  (=> (select Prop lq_anf__dzL) (< x_ayL y_ayM))
                  (=> (< x_ayL y_ayM) (select Prop lq_anf__dzL))
                  true
                  (select Prop VV_F25)
                  true)))
    (=> a!1 (k_59 EQ_6U GT_6W LT_6S VV_F25 ds_dzI cmp Prop P_rkk)))))
(assert (forall ((b_azp Int)
         (EQ_6U Int)
         (GT_6W Int)
         (LT_6S Int)
         (lq_anf__dzQ Int)
         (lq_anf__dzS Int)
         (n_ayK Int)
         (VV_F10 Int)
         (x Int)
         (cmp (Array Int Int))
         (Prop (Array Int Bool))
         (P_rkk (Array Int (Array Int Int))))
  (=> (and (k_89 EQ_6U GT_6W LT_6S lq_anf__dzS b_azp n_ayK cmp Prop P_rkk)
           (k_128 EQ_6U
                  GT_6W
                  LT_6S
                  x
                  lq_anf__dzQ
                  lq_anf__dzS
                  n_ayK
                  cmp
                  Prop
                  P_rkk)
           (= (select cmp EQ_6U) EQ_6U)
           (= (select cmp GT_6W) GT_6W)
           (= (select cmp LT_6S) LT_6S)
           (= lq_anf__dzQ 100)
           (k_59 EQ_6U GT_6W LT_6S VV_F10 x cmp Prop P_rkk)
           true)
      (k_130 EQ_6U
             GT_6W
             LT_6S
             VV_F10
             lq_anf__dzQ
             lq_anf__dzS
             n_ayK
             cmp
             Prop
             P_rkk))))
(assert (forall ((lq_anf__dzK Int)
         (EQ_6U Int)
         (GT_6W Int)
         (LT_6S Int)
         (lq_anf__dzL Int)
         (x_ayL Int)
         (VV_F26 Int)
         (y_ayM Int)
         (ds_dzI Int)
         (cmp (Array Int Int))
         (Prop (Array Int Bool))
         (P_rkk (Array Int (Array Int Int))))
  (let ((a!1 (and (not (select Prop VV_F26))
                  (k_56 EQ_6U GT_6W LT_6S ds_dzI cmp Prop P_rkk)
                  (k_56 EQ_6U GT_6W LT_6S lq_anf__dzK cmp Prop P_rkk)
                  (k_49 EQ_6U GT_6W LT_6S x_ayL lq_anf__dzK cmp Prop P_rkk)
                  (k_51 EQ_6U GT_6W LT_6S y_ayM lq_anf__dzK cmp Prop P_rkk)
                  (k_53 EQ_6U GT_6W LT_6S y_ayM x_ayL cmp Prop P_rkk)
                  (= (select cmp EQ_6U) EQ_6U)
                  (= (select cmp GT_6W) GT_6W)
                  (= (select cmp LT_6S) LT_6S)
                  (= lq_anf__dzK ds_dzI)
                  (= lq_anf__dzK (select (select P_rkk x_ayL) y_ayM))
                  (=> (select Prop lq_anf__dzL) (< x_ayL y_ayM))
                  (=> (< x_ayL y_ayM) (select Prop lq_anf__dzL))
                  true
                  (=> (select Prop VV_F26) (< x_ayL y_ayM))
                  (=> (< x_ayL y_ayM) (select Prop VV_F26))
                  true
                  (= VV_F26 lq_anf__dzL)
                  true)))
    (=> a!1 false))))
(assert (forall ((b_azp Int)
         (EQ_6U Int)
         (GT_6W Int)
         (LT_6S Int)
         (lq_anf__dzQ Int)
         (n_ayK Int)
         (VV_F11 Int)
         (cmp (Array Int Int))
         (Prop (Array Int Bool))
         (P_rkk (Array Int (Array Int Int))))
  (=> (and (= (select cmp EQ_6U) EQ_6U)
           (= (select cmp GT_6W) GT_6W)
           (= (select cmp LT_6S) LT_6S)
           (= lq_anf__dzQ 100)
           (= VV_F11 n_ayK)
           true)
      (k_79 EQ_6U GT_6W LT_6S VV_F11 b_azp cmp Prop P_rkk))))
(assert (forall ((lq_anf__dzK Int)
         (EQ_6U Int)
         (GT_6W Int)
         (LT_6S Int)
         (VV_F27 Int)
         (x_ayL Int)
         (ds_dzI Int)
         (y_ayM Int)
         (cmp (Array Int Int))
         (Prop (Array Int Bool))
         (P_rkk (Array Int (Array Int Int))))
  (let ((a!1 (and (k_56 EQ_6U GT_6W LT_6S ds_dzI cmp Prop P_rkk)
                  (k_56 EQ_6U GT_6W LT_6S lq_anf__dzK cmp Prop P_rkk)
                  (k_49 EQ_6U GT_6W LT_6S x_ayL lq_anf__dzK cmp Prop P_rkk)
                  (k_51 EQ_6U GT_6W LT_6S y_ayM lq_anf__dzK cmp Prop P_rkk)
                  (k_53 EQ_6U GT_6W LT_6S y_ayM x_ayL cmp Prop P_rkk)
                  (= (select cmp EQ_6U) EQ_6U)
                  (= (select cmp GT_6W) GT_6W)
                  (= (select cmp LT_6S) LT_6S)
                  (= lq_anf__dzK ds_dzI)
                  (= lq_anf__dzK (select (select P_rkk x_ayL) y_ayM))
                  (k_51 EQ_6U GT_6W LT_6S VV_F27 lq_anf__dzK cmp Prop P_rkk)
                  (k_53 EQ_6U GT_6W LT_6S VV_F27 x_ayL cmp Prop P_rkk)
                  (= VV_F27 y_ayM)
                  true)))
    (=> a!1
        (k_65 EQ_6U
              GT_6W
              LT_6S
              VV_F27
              ds_dzI
              lq_anf__dzK
              x_ayL
              y_ayM
              cmp
              Prop
              P_rkk)))))
(assert (forall ((EQ_6U Int)
         (GT_6W Int)
         (LT_6S Int)
         (VV_F12 Int)
         (a_azc Int)
         (x_ayJ Int)
         (lq_anf__dzP Int)
         (b_azp Int)
         (cmp (Array Int Int))
         (Prop (Array Int Bool))
         (P_rkk (Array Int (Array Int Int))))
  (=> (and (k_73 EQ_6U GT_6W LT_6S lq_anf__dzP a_azc x_ayJ cmp Prop P_rkk)
           (k_79 EQ_6U GT_6W LT_6S x_ayJ b_azp cmp Prop P_rkk)
           (= (select cmp EQ_6U) EQ_6U)
           (= (select cmp GT_6W) GT_6W)
           (= (select cmp LT_6S) LT_6S)
           (k_110 EQ_6U
                  GT_6W
                  LT_6S
                  VV_F12
                  b_azp
                  lq_anf__dzP
                  x_ayJ
                  cmp
                  Prop
                  P_rkk)
           true)
      (k_89 EQ_6U GT_6W LT_6S VV_F12 b_azp x_ayJ cmp Prop P_rkk))))
(assert (forall ((lq_anf__dzK Int)
         (EQ_6U Int)
         (GT_6W Int)
         (LT_6S Int)
         (x_ayL Int)
         (ds_dzI Int)
         (y_ayM Int)
         (VV_F28 Int)
         (cmp (Array Int Int))
         (Prop (Array Int Bool))
         (P_rkk (Array Int (Array Int Int))))
  (let ((a!1 (and (k_56 EQ_6U GT_6W LT_6S ds_dzI cmp Prop P_rkk)
                  (k_56 EQ_6U GT_6W LT_6S lq_anf__dzK cmp Prop P_rkk)
                  (k_49 EQ_6U GT_6W LT_6S x_ayL lq_anf__dzK cmp Prop P_rkk)
                  (k_51 EQ_6U GT_6W LT_6S y_ayM lq_anf__dzK cmp Prop P_rkk)
                  (k_53 EQ_6U GT_6W LT_6S y_ayM x_ayL cmp Prop P_rkk)
                  (= (select cmp EQ_6U) EQ_6U)
                  (= (select cmp GT_6W) GT_6W)
                  (= (select cmp LT_6S) LT_6S)
                  (= lq_anf__dzK ds_dzI)
                  (= lq_anf__dzK (select (select P_rkk x_ayL) y_ayM))
                  (k_49 EQ_6U GT_6W LT_6S VV_F28 lq_anf__dzK cmp Prop P_rkk)
                  (= VV_F28 x_ayL)
                  true)))
    (=> a!1
        (k_65 EQ_6U
              GT_6W
              LT_6S
              VV_F28
              ds_dzI
              lq_anf__dzK
              x_ayL
              y_ayM
              cmp
              Prop
              P_rkk)))))
(assert (forall ((EQ_6U Int)
         (VV_161 Int)
         (GT_6W Int)
         (LT_6S Int)
         (a_azc Int)
         (x_ayJ Int)
         (lq_anf__dzP Int)
         (b_azp Int)
         (VV_F13 Int)
         (cmp (Array Int Int))
         (Prop (Array Int Bool))
         (P_rkk (Array Int (Array Int Int))))
  (=> (and (k_110 EQ_6U
                  GT_6W
                  LT_6S
                  VV_161
                  b_azp
                  lq_anf__dzP
                  x_ayJ
                  cmp
                  Prop
                  P_rkk)
           (k_73 EQ_6U GT_6W LT_6S lq_anf__dzP a_azc x_ayJ cmp Prop P_rkk)
           (k_79 EQ_6U GT_6W LT_6S x_ayJ b_azp cmp Prop P_rkk)
           (= (select cmp EQ_6U) EQ_6U)
           (= (select cmp GT_6W) GT_6W)
           (= (select cmp LT_6S) LT_6S)
           (k_103 EQ_6U
                  GT_6W
                  LT_6S
                  VV_F13
                  VV_161
                  b_azp
                  lq_anf__dzP
                  x_ayJ
                  cmp
                  Prop
                  P_rkk)
           true)
      (k_82 EQ_6U GT_6W LT_6S VV_F13 VV_161 b_azp x_ayJ cmp Prop P_rkk))))
(assert (forall ((VV_F14 Int)
         (EQ_6U Int)
         (VV_161 Int)
         (GT_6W Int)
         (LT_6S Int)
         (a_azc Int)
         (x_ayJ Int)
         (lq_anf__dzP Int)
         (b_azp Int)
         (cmp (Array Int Int))
         (Prop (Array Int Bool))
         (P_rkk (Array Int (Array Int Int))))
  (=> (and (k_110 EQ_6U
                  GT_6W
                  LT_6S
                  VV_161
                  b_azp
                  lq_anf__dzP
                  x_ayJ
                  cmp
                  Prop
                  P_rkk)
           (k_73 EQ_6U GT_6W LT_6S lq_anf__dzP a_azc x_ayJ cmp Prop P_rkk)
           (k_79 EQ_6U GT_6W LT_6S x_ayJ b_azp cmp Prop P_rkk)
           (= (select cmp EQ_6U) EQ_6U)
           (= (select cmp GT_6W) GT_6W)
           (= (select cmp LT_6S) LT_6S)
           (k_105 EQ_6U
                  GT_6W
                  LT_6S
                  VV_F14
                  VV_161
                  b_azp
                  lq_anf__dzP
                  x_ayJ
                  cmp
                  Prop
                  P_rkk)
           true)
      (k_84 EQ_6U GT_6W LT_6S VV_F14 VV_161 b_azp x_ayJ cmp Prop P_rkk))))
(assert (forall ((EQ_6U Int)
         (GT_6W Int)
         (LT_6S Int)
         (a_azc Int)
         (x_ayJ Int)
         (VV_F15 Int)
         (lq_anf__dzP Int)
         (b_azp Int)
         (lq_tmp_x87 Int)
         (cmp (Array Int Int))
         (Prop (Array Int Bool))
         (P_rkk (Array Int (Array Int Int))))
  (=> (and (k_73 EQ_6U GT_6W LT_6S lq_anf__dzP a_azc x_ayJ cmp Prop P_rkk)
           (k_79 EQ_6U GT_6W LT_6S x_ayJ b_azp cmp Prop P_rkk)
           (= (select cmp EQ_6U) EQ_6U)
           (= (select cmp GT_6W) GT_6W)
           (= (select cmp LT_6S) LT_6S)
           (k_107 EQ_6U
                  GT_6W
                  LT_6S
                  VV_F15
                  b_azp
                  lq_anf__dzP
                  lq_tmp_x87
                  x_ayJ
                  cmp
                  Prop
                  P_rkk)
           true)
      (k_86 EQ_6U GT_6W LT_6S VV_F15 b_azp lq_tmp_x87 x_ayJ cmp Prop P_rkk))))

(check-sat)
